\ENCODING=ISO-8859-1
\Problem name: IloCplex

Maximize
 obj1: 10000 x1 + 15000 x2 + 40000 x3 + 11000 x4 + 18000 x5 + 50000 x6
       + 15000 x7 + 19000 x8 + 45000 x9 + 15000 x10 + 19000 x11 + 45000 x12
       - 10000 x13 - 15000 x14 - 40000 x15 - 11000 x16 - 18000 x17 - 50000 x18
       - 15000 x19 - 19000 x20 - 45000 x21
Subject To
 c1:  x13 + x16 + x19  = 1
 c2:   = 0
 c3:  x15 + x18 + x21 <= 1
 c4:  <= 0
 c5:  - x15 - x18 - x21 + x22 >= 0
 c6:  <= 0
 c7:  - 63996000000 x13 - 63995999999 x14 - 15999000 x16 - 63995999999 x17
      - 5333 x19 - 63995999999 x20 - 127991999998 x22 <= 63995999999
 c8:  - 755950000 x13 - 755949999 x14 - 650000 x16 - 755949999 x17 - 1000 x19
      - 755949999 x20 - 1511899998 x22 <= 755949999
 c9:  - 75000000 x13 - 74999999 x14 - 150000 x16 - 74999999 x17 - 600 x19
      - 74999999 x20 - 149999998 x22 <= 74999999
 c10: x14 + x17 + x20 + 2 x22 <= -1
 c11: - 84690293999 x14 - 42356417999 x17 - 42345150756 x20 - 84690293998 x22
      <= 42345146999
 c12: - 934835199 x14 - 467968799 x17 - 467418447 x20 - 934835198 x22
      <= 467417599
 c13: x14 + x17 + x20 + 2 x22 <= -1
 c14: x14 + x17 + x20 + 2 x22 <= -1
 c15: - 215 x14 - 216 x15 - 215 x17 - 36 x18 - 215 x20 - 6 x21 - 430 x22 <= 215
 c16: x14 + x17 + x20 + 2 x22 <= -1
 c17: x14 + x17 + x20 + 2 x22 <= -1
 c18: x14 + x17 + x20 + 2 x22 <= -1
 c19: <= 6
 c20: <= 0
 c21: <= 0
 c22: <= 0
 c23: <= 3757
 c24: <= 848
 c25: <= 0
 c26: <= 82
 c27: <= 5333
 c28: <= 1163
 c29: <= 606
 c30: <= 0
 c31: <= 6
 c32: <= 0
 c33: <= 0
 c34: <= 0
Bounds
      x1 >= 0
      x2 >= 0
      x3 >= 0
      x4 >= 0
      x5 >= 0
      x6 >= 0
      x7 >= 0
      x8 >= 0
      x9 >= 0
      x10 >= 0
      x11 >= 0
      x12 >= 0
      x13 >= 0
      x14 >= 0
      x15 >= 0
      x16 >= 0
      x17 >= 0
      x18 >= 0
      x19 >= 0
      x20 >= 0
      x21 >= 0
      x22 >= 0
Generals
 x1  x2  x3  x4  x5  x6  x7  x8  x9  x10  x11  x12  x13  x14  x15  x16  x17 
 x18  x19  x20  x21  x22 
End
